NAME : OMNETRUN
COMMENT : 524.61
TYPE : CVRP
DIMENSION : 21
EDGE_WEIGHT_TYPE : EUC_2D
CAPACITY : 21
NODE_COORD_SECTION
1 0.107093 -0.77924
2 38.4217 -279.265
3 161.837 -859.034
4 190.193 -2332.21
5 211.161 -2781.68
6 239.05 -4047.03
7 93.8284 -4931.24
8 299.331 -1719.54
9 439.33 -3172.48
10 398.438 -3561.15
11 312.402 -4493.97
12 290.952 -5427.46
13 271.727 -5825.93
14 593.911 -71.2871
15 641.494 -428.536
16 653.233 -1870.63
17 604.347 -2276.33
18 734.706 -5735.15
19 957.534 -152.101
20 923.681 -724.286
21 813.219 -1196.7
DEMAND_SECTION
1 0
2 1
3 1
4 1
5 1
6 1
7 1
8 1
9 1
10 1
11 1
12 1
13 1
14 1
15 1
16 1
17 1
18 1
19 1
20 1
21 1
DEPOT_SECTION
1
-1
EOF
